cliques=[{0,2,5,13},{1,3,14,16,22},{0,2,5,13},{1,3,14,16,22},{3,4,18,25},{0,2,5,13},{6,10,13,29},{7,9,11,17,23,29},{1,8,9},{7,9,11,17,23,29},{6,10,13,29},{7,9,11,17,23,29},{8,12,21,32},{0,2,5,13},{1,3,14,16,22},{12,15,16,23},{1,3,14,16,22},{7,9,11,17,23,29},{3,4,18,25},{2,19,21,22,31},{0,14,17,20},{2,19,21,22,31},{1,3,14,16,22},{7,9,11,17,23,29},{7,24,26,27,30,32},{3,4,18,25},{7,24,26,27,30,32},{6,20,25,27},{5,11,28},{7,9,11,17,23,29},{7,24,26,27,30,32},{2,19,21,22,31},{8,12,21,32}];
nr_cliques=33;
